
(set-logic ALL) 

(declare-datatype MyList ((Nil) (Cons (head Real) (tail MyList)) )) 
(declare-fun l0 () MyList) 
(declare-fun l1 () MyList) 
(declare-fun l2 () MyList) 
(declare-fun l3 () MyList) 
(declare-fun i0 () Real) 
(declare-fun i1 () Real) 
(assert (or (= l0 l0) (is-Nil l1)) )
(assert (not (= l3 l0)) )
(assert (or (is-Nil Nil) (= l3 l1)) )
(assert (is-Nil Nil) )
(assert (not (= l2 Nil)) )
(assert (or (= l0 Nil) (= l0 Nil)) )
(assert (= l0 l3) )
(assert (not (is-Nil l1)) )
(check-sat)
